%chk=input4.chk
%mem=60GB
%nprocshared=16
#p opt=(calcfc,quadmac,maxstep=10) oniom(b3lyp/6-31g(d):amber=softonly)
nosymm scf=qc geom=connectivity iop(2/15=3) Amber=(FirstEquiv,print)

ONIOM inputfile generated by pdb2oniom.py from init.parm7 and init.rst7.
Please use GaussView 6 to modify the qm region and add the link atom info.

-7 1 -1 1 -1 1
 N-N3-0.159200    0    7.22200000   11.44800000   28.60000000 L
 H-H-0.198400     0    7.63800000   10.54300000   28.43400000 L
 H-H-0.198400     0    7.58400000   11.81700000   29.46800000 L
 H-H-0.198400     0    7.28500000   11.99500000   27.75300000 L
 C-CX-0.022100    0    5.77400000   11.25200000   28.83200000 L
 H-HP-0.111600    0    5.51900000   11.60800000   29.83000000 L
 C-C2C-0.086500   0    5.04500000   12.08400000   27.69400000 L
 H-HC-0.012500    0    3.96800000   12.18000000   27.83600000 L
 H-HC-0.012500    0    5.48000000   13.08100000   27.76100000 L
 C-C2C-0.033400   0    5.34800000   11.45200000   26.33200000 L
 H-H1-0.029200    0    6.39600000   11.56900000   26.05600000 L
 H-H1-0.029200    0    5.14400000   10.38100000   26.31700000 L
 S-S--0.277400    0    4.44600000   12.31400000   24.97000000 L
 C-CT--0.034100   0    5.54300000   13.54300000   24.27900000 L
 H-H1-0.059700    0    6.55700000   13.15300000   24.18600000 L
 H-H1-0.059700    0    5.23700000   14.01700000   23.34700000 L
 H-H1-0.059700    0    5.63700000   14.42400000   24.91400000 L
 C-C-0.612300     0    5.35800000    9.75800000   28.92700000 L
 O-O--0.571300    0    6.17500000    8.76900000   28.86000000 L
 N-N--0.347900    0    4.09700000    9.48400000   29.03700000 L
 H-H-0.274700     0    3.49500000   10.28600000   28.92400000 L
 C-CX--0.240000   0    3.41100000    8.20800000   29.32000000 L
 H-H1-0.142600    0    4.10500000    7.44700000   28.96400000 L
 C-C8--0.009400   0    3.09500000    8.05100000   30.88500000 L
 H-HC-0.036200    0    4.01200000    8.34300000   31.39700000 L
 H-HC-0.036200    0    2.21800000    8.66600000   31.09200000 L
 C-C8-0.018700    0    2.77700000    6.55900000   31.15800000 L
 H-HC-0.010300    0    1.87600000    6.27800000   30.61300000 L
 H-HC-0.010300    0    3.69700000    6.00600000   30.96700000 L
 C-C8--0.047900   0    2.47700000    6.41600000   32.60700000 L
 H-HC-0.062100    0    3.31300000    6.75100000   33.22100000 L
 H-HC-0.062100    0    1.55000000    6.94600000   32.82500000 L
 C-C8--0.014300   0    2.09000000    5.00800000   32.93400000 L
 H-HP-0.113500    0    1.25500000    4.67700000   32.31700000 L
 H-HP-0.113500    0    2.90300000    4.33700000   32.65600000 L
 N-N3--0.385400   0    1.76300000    4.87100000   34.32700000 L
 H-H-0.340000     0    1.13100000    5.63400000   34.52400000 L
 H-H-0.340000     0    1.41200000    3.95100000   34.55200000 L
 H-H-0.340000     0    2.62400000    4.98600000   34.84200000 L
 C-C-0.734100     0    2.05400000    8.20700000   28.55600000 L
 O-O--0.589400    0    1.28600000    9.17800000   28.55000000 L
 N-N--0.415700    0    1.65600000    7.05600000   28.01600000 L
 H-H-0.271900     0    2.20500000    6.21300000   28.10500000 L
 C-CX--0.038900   0    0.44400000    6.88900000   27.18900000 L
 H-H1-0.100700    0   -0.36500000    7.43000000   27.67900000 L
 C-C3C-0.365400   0    0.75300000    7.57700000   25.82100000 L
 H-H1-0.004300    0    1.42300000    8.43300000   25.89600000 L
 C-CT--0.243800   0    1.47300000    6.51400000   24.96000000 L
 H-HC-0.064200    0    2.34200000    6.13200000   25.49500000 L
 H-HC-0.064200    0    0.75900000    5.71600000   24.75600000 L
 H-HC-0.064200    0    1.78900000    6.92500000   24.00100000 L
 O-OH--0.676100   0   -0.43200000    7.83800000   25.09100000 L
 H-HO-0.410200    0   -0.96300000    8.42600000   25.63300000 L
 C-C-0.597300     0   -0.04500000    5.41400000   27.09100000 L
 O-O--0.567900    0    0.78700000    4.55700000   27.26000000 L
 N-N--0.415700    0   -1.27500000    5.16500000   26.66000000 L
 H-H-0.271900     0   -1.94000000    5.91300000   26.52600000 L
 C-CX--0.003100   0   -1.79600000    3.79900000   26.42900000 L
 H-H1-0.085000    0   -1.54500000    3.15200000   27.27000000 L
 C-C2C--0.003600  0   -3.31700000    3.84500000   26.33200000 L
 H-HC-0.017100    0   -3.67400000    4.69700000   25.75300000 L
 H-HC-0.017100    0   -3.61000000    2.85200000   25.99200000 L
 C-C2C--0.064500  0   -3.98300000    4.03800000   27.70000000 L
 H-HC-0.035200    0   -3.85500000    3.18400000   28.36500000 L
 H-HC-0.035200    0   -3.58200000    4.94000000   28.16200000 L
 C-C-0.695100     0   -5.53400000    4.18900000   27.53700000 L
 O-O--0.608600    0   -6.05900000    5.28200000   27.27100000 L
 N-N--0.940700    0   -6.27000000    3.08100000   27.47000000 L
 H-H-0.425100     0   -7.24400000    3.17600000   27.21700000 L
 H-H-0.425100     0   -5.97500000    2.13000000   27.63800000 L
 C-C-0.597300     0   -1.14800000    3.13700000   25.16300000 L
 O-O--0.567900    0   -0.70100000    1.99400000   25.22900000 L
 N-N--0.415700    0   -0.97100000    3.87600000   24.07500000 L
 H-H-0.271900     0   -1.51500000    4.72600000   24.03600000 L
 C-CX--0.087500   0   -0.32000000    3.34300000   22.80900000 L
 H-H1-0.096900    0    0.21200000    2.42000000   23.04300000 L
 C-C3C-0.298500   0   -1.32800000    2.95800000   21.70900000 L
 H-HC--0.029700   0   -1.97600000    3.82400000   21.57900000 L
 C-CT--0.319200   0   -0.71200000    2.68800000   20.33800000 L
 H-HC-0.079100    0   -0.28000000    3.62300000   19.98200000 L
 H-HC-0.079100    0   -0.02300000    1.84700000   20.41700000 L
 H-HC-0.079100    0   -1.48400000    2.35000000   19.64600000 L
 C-CT--0.319200   0   -2.21700000    1.70200000   22.08500000 L
 H-HC-0.079100    0   -2.95400000    1.62100000   21.28600000 L
 H-HC-0.079100    0   -1.55600000    0.83600000   22.08200000 L
 H-HC-0.079100    0   -2.67000000    1.94800000   23.04600000 L
 C-C-0.597300     0    0.74600000    4.33400000   22.35800000 L
 O-O--0.567900    0    0.41500000    5.43700000   21.96200000 L
 N-N--0.415700    0    2.00300000    3.81500000   22.24000000 L
 H-H-0.271900     0    2.08100000    2.83600000   22.47800000 L
 C-CX-0.033700    0    2.96300000    4.41100000   21.39000000 L
 H-H1-0.082300    0    2.84800000    5.49400000   21.35000000 L
 C-CT--0.182500   0    4.31700000    4.06200000   21.88700000 L
 H-HC-0.060300    0    4.49600000    4.32900000   22.92900000 L
 H-HC-0.060300    0    4.52800000    3.00600000   21.71700000 L
 H-HC-0.060300    0    5.04200000    4.60900000   21.28500000 L
 C-C-0.597300     0    2.76600000    3.96900000   19.90100000 L
 O-O--0.567900    0    2.53900000    2.76000000   19.77000000 L
 N-N--0.415700    0    2.92900000    4.90100000   18.96100000 L
 H-H-0.271900     0    2.92500000    5.86700000   19.25500000 L
 C-CX--0.059700   0    2.88000000    4.62900000   17.50900000 L
 H-H1-0.086900    0    2.71400000    3.57300000   17.29400000 L
 C-C3C-0.130300   0    1.72200000    5.41000000   16.79100000 L
 H-HC-0.018700    0    1.89600000    6.48600000   16.83400000 L
 C-CT--0.320400   0    1.66400000    4.94400000   15.37500000 L
 H-HC-0.088200    0    2.51500000    5.29500000   14.79100000 L
 H-HC-0.088200    0    1.60500000    3.86600000   15.22400000 L
 H-HC-0.088200    0    0.77500000    5.35300000   14.89600000 L
 C-C2C--0.043000  0    0.40700000    5.03800000   17.54500000 L
 H-HC-0.023600    0    0.16800000    3.97700000   17.46600000 L
 H-HC-0.023600    0    0.64800000    5.28100000   18.58000000 L
 C-CT--0.066000   0   -0.92000000    5.81300000   17.14400000 L
 H-HC-0.018600    0   -1.78500000    5.49300000   17.72500000 L
 H-HC-0.018600    0   -0.72700000    6.87800000   17.27600000 L
 H-HC-0.018600    0   -1.24400000    5.60600000   16.12400000 L
 C-C-0.597300     0    4.24100000    5.08400000   16.93300000 L
 O-O--0.567900    0    4.65800000    6.15300000   17.32900000 L
 N-N--0.415700    0    4.95800000    4.38400000   16.02300000 L
 H-H-0.271900     0    4.64000000    3.45700000   15.77700000 L
 C-CX--0.059700   0    6.17600000    4.90100000   15.49100000 L
 H-H1-0.086900    0    6.50900000    5.85100000   15.91000000 L
 C-C3C-0.130300   0    7.37700000    3.91100000   15.67300000 L
 H-HC-0.018700    0    7.13800000    3.06300000   15.03200000 L
 C-CT--0.320400   0    8.77500000    4.41600000   15.22600000 L
 H-HC-0.088200    0    9.53600000    3.63700000   15.25900000 L
 H-HC-0.088200    0    8.71400000    4.72200000   14.18200000 L
 H-HC-0.088200    0    9.09900000    5.27800000   15.80900000 L
 C-C2C--0.043000  0    7.30100000    3.18300000   17.01900000 L
 H-HC-0.023600    0    6.34000000    2.67100000   17.06700000 L
 H-HC-0.023600    0    8.18700000    2.54900000   17.03700000 L
 C-CT--0.066000   0    7.29900000    4.03500000   18.29900000 L
 H-HC-0.018600    0    7.50000000    3.39700000   19.16000000 L
 H-HC-0.018600    0    8.03600000    4.81400000   18.10600000 L
 H-HC-0.018600    0    6.32700000    4.47000000   18.53000000 L
 C-C-0.597300     0    5.85700000    5.17000000   14.03000000 L
 O-O--0.567900    0    5.10900000    4.39100000   13.40300000 L
 N-N--0.415700    0    6.34500000    6.26100000   13.39800000 L
 H-H-0.271900     0    6.79700000    6.91300000   14.02400000 L
 C-CX--0.025200   0    5.99000000    6.78000000   12.06600000 L
 H-H1-0.069800    0    5.93900000    5.93200000   11.38400000 L
 H-H1-0.069800    0    6.83100000    7.33800000   11.65400000 L
 C-C-0.597300     0    4.64500000    7.46000000   11.97200000 L
 O-O--0.567900    0    3.53800000    7.01000000   12.29100000 L
 N-N--0.415700    0    4.69600000    8.61300000   11.29000000 L
 H-H-0.271900     0    5.58500000    8.98900000   10.99200000 L
 C-CX-0.033700    0    3.50400000    9.31000000   10.86100000 L
 H-H1-0.082300    0    2.61300000    9.01600000   11.41600000 L
 C-CT--0.182500   0    3.74300000   10.83000000   10.94300000 L
 H-HC-0.060300    0    2.92500000   11.38900000   10.48800000 L
 H-HC-0.060300    0    3.81100000   11.19200000   11.96900000 L
 H-HC-0.060300    0    4.69100000   11.05500000   10.45600000 L
 C-C-0.597300     0    3.25100000    8.79300000    9.41100000 L
 O-O--0.567900    0    2.98100000    9.47000000    8.44100000 L
 N-N--0.415700    0    3.24900000    7.44800000    9.27900000 L
 H-H-0.271900     0    3.35000000    6.81200000   10.05600000 L
 C-CX--0.025200   0    2.64000000    6.93100000    8.06600000 L
 H-H1-0.069800    0    2.61300000    5.84200000    8.07600000 L
 H-H1-0.069800    0    3.20900000    7.27100000    7.20100000 L
 C-C-0.597300     0    1.14700000    7.31100000    7.98800000 L
 O-O--0.567900    0    0.51700000    7.52600000    8.98500000 L
 N-N--0.254800    0    0.53100000    7.29100000    6.80900000 L
 C-CT-0.019200    0    1.19000000    7.09000000    5.54800000 L
 H-H1-0.039100    0    1.35700000    8.05500000    5.06900000 L
 H-H1-0.039100    0    2.03200000    6.40100000    5.61900000 L
 C-CT-0.018900    0    0.16000000    6.39500000    4.66700000 L
 H-HC-0.021300    0    0.23200000    5.31300000    4.56300000 L
 H-HC-0.021300    0    0.25300000    6.77600000    3.65000000 L
 C-CT--0.007000   0   -1.17400000    6.94300000    5.17800000 L
 H-HC-0.025300    0   -1.31800000    7.93900000    4.75800000 L
 H-HC-0.025300    0   -2.03400000    6.30700000    4.96800000 L
 C-CX--0.026600   0   -0.90700000    7.19000000    6.69300000 L
 H-H1-0.064100    0   -1.34200000    8.15900000    6.93600000 L
 C-C-0.589600     0   -1.59200000    6.07700000    7.48800000 L
 O-O--0.574800    0   -2.70500000    6.18200000    8.01000000 L
 N-N--0.415700    0   -0.89300000    4.94800000    7.72900000 L
 H-H-0.271900     0    0.02000000    4.92900000    7.29700000 L
 C-CX--0.024900   0   -1.30000000    3.85200000    8.52000000 L
 H-H1-0.084300    0   -2.30300000    3.58800000    8.18600000 L
 C-C2C-0.211700   0   -0.31800000    2.68100000    8.29900000 L
 H-H1-0.035200    0    0.68000000    2.93600000    8.65600000 L
 H-H1-0.035200    0   -0.68900000    1.79000000    8.80400000 L
 O-OH--0.654600   0   -0.32900000    2.34800000    6.93200000 L
 H-HO-0.427500    0    0.58000000    2.60500000    6.76300000 L
 C-C-0.597300     0   -1.30000000    4.27500000   10.01200000 L
 O-O--0.567900    0   -2.26600000    4.02600000   10.70200000 L
 N-N--0.415700    0   -0.28100000    4.97400000   10.43800000 L
 H-H-0.271900     0    0.36200000    5.25300000    9.71200000 L
 C-CX--0.025200   0   -0.07600000    5.46000000   11.83400000 L
 H-H1-0.069800    0    0.94800000    5.80000000   11.99100000 L
 H-H1-0.069800    0   -0.19600000    4.61800000   12.51600000 L
 C-C-0.597300     0   -1.02000000    6.56400000   12.20100000 L
 O-O--0.567900    0   -1.67100000    6.50500000   13.20700000 L
 N-N--0.415700    0   -1.16600000    7.51500000   11.31200000 L
 H-H-0.271900     0   -0.72300000    7.42200000   10.40900000 L
 C-CX--0.051800   0   -2.10900000    8.60000000   11.40000000 L
 H-H1-0.092200    0   -1.86300000    9.14500000   12.31100000 L
 C-C2C--0.110200  0   -1.91300000    9.53600000   10.23900000 L
 H-HC-0.045700    0   -2.01600000    8.98700000    9.30200000 L
 H-HC-0.045700    0   -2.74800000   10.23300000   10.17600000 L
 C-C3C-0.353100   0   -0.59600000   10.37300000   10.15900000 L
 H-HC--0.036100   0    0.30100000    9.75500000   10.15900000 L
 C-CT--0.412100   0   -0.56400000   11.24800000    8.85400000 L
 H-HC-0.100000    0   -0.16400000   10.69700000    8.00400000 L
 H-HC-0.100000    0   -1.55600000   11.64900000    8.64700000 L
 H-HC-0.100000    0    0.12100000   12.09600000    8.85900000 L
 C-CT--0.412100   0   -0.41300000   11.40600000   11.25500000 L
 H-HC-0.100000    0    0.53200000   11.91900000   11.07400000 L
 H-HC-0.100000    0   -1.19800000   12.15700000   11.15500000 L
 H-HC-0.100000    0   -0.40200000   10.91700000   12.22900000 L
 C-C-0.597300     0   -3.59700000    8.04000000   11.39600000 L
 O-O--0.567900    0   -4.42700000    8.67800000   12.06400000 L
 N-N--0.415700    0   -3.88900000    6.89400000   10.73200000 L
 H-H-0.271900     0   -3.19600000    6.46500000   10.13500000 L
 C-CX--0.051800   0   -5.20700000    6.29700000   10.76700000 L
 H-H1-0.092200    0   -5.95800000    7.08500000   10.70700000 L
 C-C2C--0.110200  0   -5.38800000    5.54000000    9.45500000 L
 H-HC-0.045700    0   -5.18300000    6.16300000    8.58500000 L
 H-HC-0.045700    0   -4.79400000    4.62800000    9.38600000 L
 C-C3C-0.353100   0   -6.83300000    4.98000000    9.25700000 L
 H-HC--0.036100   0   -6.97000000    4.19500000   10.00200000 L
 C-CT--0.412100   0   -7.95800000    6.02100000    9.45700000 L
 H-HC-0.100000    0   -7.64200000    6.90200000    8.89700000 L
 H-HC-0.100000    0   -8.96300000    5.79500000    9.10200000 L
 H-HC-0.100000    0   -8.07800000    6.23700000   10.51900000 L
 C-CT--0.412100   0   -6.94700000    4.42500000    7.82500000 L
 H-HC-0.100000    0   -5.98500000    3.98300000    7.56500000 L
 H-HC-0.100000    0   -7.73200000    3.67200000    7.75600000 L
 H-HC-0.100000    0   -6.97700000    5.29700000    7.17200000 L
 C-C-0.597300     0   -5.46100000    5.50200000   11.98100000 L
 O-O--0.567900    0   -6.51300000    5.58900000   12.62200000 L
 N-N--0.415700    0   -4.45100000    4.73000000   12.37600000 L
 H-H-0.271900     0   -3.61000000    4.65500000   11.82100000 L
 C-CX--0.051800   0   -4.48300000    4.03300000   13.68700000 L
 H-H1-0.092200    0   -5.32200000    3.34300000   13.59600000 L
 C-C2C--0.110200  0   -3.20700000    3.22000000   13.71600000 L
 H-HC-0.045700    0   -3.01100000    2.49400000   12.92700000 L
 H-HC-0.045700    0   -2.45900000    3.97300000   13.46700000 L
 C-C3C-0.353100   0   -2.97400000    2.45300000   15.06800000 L
 H-HC--0.036100   0   -3.24900000    3.15800000   15.85400000 L
 C-CT--0.412100   0   -3.79700000    1.16900000   15.15100000 L
 H-HC-0.100000    0   -3.50100000    0.57300000   16.01400000 L
 H-HC-0.100000    0   -4.84900000    1.45500000   15.17300000 L
 H-HC-0.100000    0   -3.68100000    0.58200000   14.24000000 L
 C-CT--0.412100   0   -1.52200000    2.09600000   15.29800000 L
 H-HC-0.100000    0   -0.95800000    1.69700000   14.45500000 L
 H-HC-0.100000    0   -0.99500000    3.01200000   15.56500000 L
 H-HC-0.100000    0   -1.49500000    1.46400000   16.18600000 L
 C-C-0.597300     0   -4.79900000    5.09100000   14.80600000 L
 O-O--0.567900    0   -5.68400000    4.84300000   15.69400000 L
 N-N--0.415700    0   -4.12400000    6.25600000   14.78300000 L
 H-H-0.271900     0   -3.35000000    6.46600000   14.17000000 L
 C-CX--0.025200   0   -4.29800000    7.07500000   15.95900000 L
 H-H1-0.069800    0   -3.41600000    7.70600000   16.07500000 L
 H-H1-0.069800    0   -4.19600000    6.44500000   16.84300000 L
 C-C-0.597300     0   -5.64400000    7.85700000   15.95100000 L
 O-O--0.567900    0   -6.31900000    8.05700000   16.99100000 L
 N-N--0.415700    0   -6.17700000    8.15100000   14.72800000 L
 H-H-0.271900     0   -5.57800000    8.11800000   13.91500000 L
 C-CX--0.003100   0   -7.55700000    8.57900000   14.51700000 L
 H-H1-0.085000    0   -7.72800000    9.48500000   15.09900000 L
 C-C2C--0.003600  0   -7.68900000    8.88600000   13.01100000 L
 H-HC-0.017100    0   -6.88100000    9.51300000   12.63300000 L
 H-HC-0.017100    0   -7.56400000    7.88000000   12.61200000 L
 C-C2C--0.064500  0   -9.11900000    9.35100000   12.54800000 L
 H-HC-0.035200    0   -9.00100000    9.54400000   11.48100000 L
 H-HC-0.035200    0   -9.83800000    8.54100000   12.66500000 L
 C-C-0.695100     0   -9.65300000   10.62800000   13.19400000 L
 O-O--0.608600    0   -9.00700000   11.31200000   14.03800000 L
 N-N--0.940700    0  -10.83600000   10.92400000   12.81700000 L
 H-H-0.425100     0  -11.17000000   11.68300000   13.39300000 L
 H-H-0.425100     0  -11.48600000   10.41300000   12.23700000 L
 C-C-0.597300     0   -8.58700000    7.55700000   14.87900000 L
 O-O--0.567900    0   -9.65800000    8.00700000   15.32400000 L
 N-N--0.415700    0   -8.36700000    6.27000000   14.64300000 L
 H-H-0.271900     0   -7.50300000    6.03100000   14.17700000 L
 C-CX--0.051800   0   -9.21600000    5.16300000   15.11900000 L
 H-H1-0.092200    0  -10.25900000    5.38300000   14.89100000 L
 C-C2C--0.110200  0   -8.91100000    3.95400000   14.29100000 L
 H-HC-0.045700    0   -7.83400000    3.78900000   14.33400000 L
 H-HC-0.045700    0   -9.27500000    3.01700000   14.71100000 L
 C-C3C-0.353100   0   -9.40100000    4.04500000   12.80500000 L
 H-HC--0.036100   0   -9.18800000    5.03600000   12.40500000 L
 C-CT--0.412100   0   -8.68900000    2.96800000   12.01100000 L
 H-HC-0.100000    0   -9.00700000    2.93700000   10.96800000 L
 H-HC-0.100000    0   -7.63600000    3.22700000   11.90800000 L
 H-HC-0.100000    0   -8.87700000    2.03300000   12.53700000 L
 C-CT--0.412100   0  -10.92500000    3.94500000   12.70700000 L
 H-HC-0.100000    0  -11.24200000    3.96400000   11.66400000 L
 H-HC-0.100000    0  -11.31400000    3.04300000   13.17900000 L
 H-HC-0.100000    0  -11.49000000    4.74900000   13.17800000 L
 C-C-0.597300     0   -9.13800000    4.77800000   16.60500000 L
 O-O--0.567900    0  -10.14400000    4.37300000   17.14600000 L
 N-N--0.415700    0   -7.98200000    4.92800000   17.29900000 L
 H-H-0.271900     0   -7.15900000    5.21400000   16.78900000 L
 C-CX--0.051800   0   -7.82200000    4.78600000   18.75600000 L
 H-H1-0.092200    0   -8.19000000    3.83000000   19.12800000 L
 C-C2C--0.110200  0   -6.30200000    4.70300000   18.97900000 L
 H-HC-0.045700    0   -5.82900000    5.48200000   18.38100000 L
 H-HC-0.045700    0   -6.14000000    4.82500000   20.05000000 L
 C-C3C-0.353100   0   -5.59300000    3.37500000   18.54800000 L
 H-HC--0.036100   0   -5.39400000    3.36700000   17.47600000 L
 C-CT--0.412100   0   -4.19600000    3.37200000   18.96200000 L
 H-HC-0.100000    0   -4.10300000    3.44800000   20.04500000 L
 H-HC-0.100000    0   -3.65300000    2.56000000   18.47600000 L
 H-HC-0.100000    0   -3.76100000    4.24300000   18.47200000 L
 C-CT--0.412100   0   -6.28900000    2.08300000   19.12300000 L
 H-HC-0.100000    0   -7.33800000    2.11700000   18.82800000 L
 H-HC-0.100000    0   -5.83200000    1.19700000   18.68200000 L
 H-HC-0.100000    0   -6.24600000    2.02100000   20.21000000 L
 C-C-0.597300     0   -8.54100000    5.88800000   19.48800000 L
 O-O--0.567900    0   -9.10600000    5.61000000   20.54200000 L
 N-N--0.415700    0   -8.60000000    7.11800000   18.94600000 L
 H-H-0.271900     0   -8.01000000    7.27800000   18.14100000 L
 C-CX--0.058100   0   -9.39200000    8.17600000   19.50800000 L
 H-H1-0.136000    0   -9.25800000    8.27300000   20.58600000 L
 C-CT--0.007400   0   -8.94300000    9.50800000   18.90500000 L
 H-HC-0.036700    0   -7.89100000    9.63400000   19.16000000 L
 H-HC-0.036700    0   -8.99700000    9.34200000   17.82900000 L
 C-CC-0.186800    0   -9.76700000   10.73700000   19.34000000 L
 N-NB--0.543200   0  -11.09400000   10.91200000   19.04400000 L
 C-CR-0.163500    0  -11.44400000   12.14800000   19.53100000 L
 H-H5-0.143500    0  -12.43400000   12.57900000   19.53100000 L
 N-NA--0.279500   0  -10.40000000   12.69900000   20.20400000 L
 H-H-0.333900     0  -10.31300000   13.57900000   20.69300000 L
 C-CW--0.220700   0   -9.33500000   11.82900000   20.06100000 L
 H-H4-0.186200    0   -8.30100000   11.96300000   20.34300000 L
 C-C-0.597300     0  -10.88400000    7.80100000   19.43900000 L
 O-O--0.567900    0  -11.57100000    7.86600000   20.47900000 L
 N-N--0.347900    0  -11.27100000    7.20200000   18.26200000 L
 H-H-0.274700     0  -10.58300000    7.16100000   17.52300000 L
 C-CX--0.240000   0  -12.57200000    6.51000000   18.04800000 L
 H-H1-0.142600    0  -13.35100000    7.26700000   18.14200000 L
 C-C8--0.009400   0  -12.70600000    6.07400000   16.53800000 L
 H-HC-0.036200    0  -11.98000000    6.56200000   15.88800000 L
 H-HC-0.036200    0  -12.42400000    5.02200000   16.51200000 L
 C-C8-0.018700    0  -14.08700000    6.28100000   15.86700000 L
 H-HC-0.010300    0  -14.15600000    5.68800000   14.95500000 L
 H-HC-0.010300    0  -14.73300000    5.67400000   16.50200000 L
 C-C8--0.047900   0  -14.54700000    7.68700000   15.71100000 L
 H-HC-0.062100    0  -15.59600000    7.60300000   15.42600000 L
 H-HC-0.062100    0  -14.57000000    8.17700000   16.68400000 L
 C-C8--0.014300   0  -13.67000000    8.50000000   14.73100000 L
 H-HP-0.113500    0  -12.66300000    8.66700000   15.11200000 L
 H-HP-0.113500    0  -13.61000000    7.96200000   13.78500000 L
 N-N3--0.385400   0  -14.34700000    9.84700000   14.38000000 L
 H-H-0.340000     0  -14.79500000   10.16300000   15.22900000 L
 H-H-0.340000     0  -13.58400000   10.38200000   13.99000000 L
 H-H-0.340000     0  -15.13200000    9.73100000   13.75600000 L
 C-C-0.734100     0  -12.81500000    5.28500000   19.01200000 L
 O-O--0.589400    0  -13.89900000    4.69000000   18.93300000 L
 N-N--0.415700    0  -11.92200000    4.95100000   19.92700000 L
 H-H-0.271900     0  -11.15200000    5.60300000   19.96700000 L
 C-CX-0.033700    0  -11.90400000    3.87600000   20.87600000 L
 H-H1-0.082300    0  -12.87200000    3.38800000   20.76800000 L
 C-CT--0.182500   0  -10.79700000    2.92000000   20.55300000 L
 H-HC-0.060300    0  -10.93100000    2.07000000   21.22100000 L
 H-HC-0.060300    0  -10.95000000    2.58700000   19.52600000 L
 H-HC-0.060300    0   -9.80100000    3.31300000   20.75900000 L
 C-C-0.597300     0  -11.66900000    4.37300000   22.31000000 L
 O-O--0.567900    0  -11.47900000    3.57400000   23.21200000 L
 N-N--0.415700    0  -11.57700000    5.66300000   22.55800000 L
 H-H-0.271900     0  -11.88800000    6.13300000   21.72000000 L
 C-CX--0.025200   0  -11.15600000    6.37100000   23.72300000 L
 H-H1-0.069800    0  -11.85700000    6.05300000   24.49500000 L
 H-H1-0.069800    0  -11.25500000    7.45000000   23.60000000 L
 C-C-0.597300     0   -9.68400000    6.10000000   24.26400000 L
 O-O--0.567900    0   -9.37700000    6.53400000   25.36500000 L
 N-N--0.415700    0   -8.80700000    5.49700000   23.43800000 L
 H-H-0.271900     0   -9.25700000    5.29000000   22.55800000 L
 C-CX--0.059700   0   -7.46800000    5.01500000   23.69300000 L
 H-H1-0.086900    0   -7.38100000    4.74800000   24.74600000 L
 C-C3C-0.130300   0   -7.10500000    3.71700000   22.91100000 L
 H-HC-0.018700    0   -7.32300000    3.86200000   21.85300000 L
 C-CT--0.320400   0   -5.62500000    3.22600000   23.08000000 L
 H-HC-0.088200    0   -4.92700000    4.05800000   22.99200000 L
 H-HC-0.088200    0   -5.35800000    2.80900000   24.05100000 L
 H-HC-0.088200    0   -5.27100000    2.56900000   22.28500000 L
 C-C2C--0.043000  0   -7.99500000    2.54900000   23.46700000 L
 H-HC-0.023600    0   -7.54200000    2.21000000   24.39900000 L
 H-HC-0.023600    0   -9.03900000    2.80100000   23.65200000 L
 C-CT--0.066000   0   -7.94300000    1.32800000   22.49000000 L
 H-HC-0.018600    0   -8.14700000    1.54700000   21.44200000 L
 H-HC-0.018600    0   -6.92500000    0.93900000   22.47100000 L
 H-HC-0.018600    0   -8.68600000    0.60900000   22.83700000 L
 C-C-0.597300     0   -6.51700000    6.14900000   23.37600000 L
 O-O--0.567900    0   -6.34700000    6.59600000   22.23600000 L
 N-N--0.516300    0   -5.80300000    6.62300000   24.40500000 L
 H-H-0.293600     0   -5.93600000    6.19400000   25.30900000 L
 C-CX-0.038100    0   -4.74300000    7.61700000   24.45200000 L
 H-H1-0.088000    0   -5.10700000    8.48400000   23.90100000 L
 C-C2C--0.030300  0   -4.35500000    7.86400000   25.89200000 L
 H-HC--0.012200   0   -5.24100000    8.40100000   26.23200000 L
 H-HC--0.012200   0   -4.18900000    6.93500000   26.43800000 L
 C-CO-0.799400    0   -3.14800000    8.71100000   25.97800000 L
 O-O2--0.801400   0   -2.32700000    8.52900000   26.88300000 L
 O-O2--0.801400   0   -2.92800000    9.57500000   25.07000000 L
 C-C-0.536600     0   -3.50400000    7.11600000   23.64000000 L
 O-O--0.581900    0   -2.98100000    6.05100000   23.92800000 L
 N-N--0.415700    0   -3.09400000    7.89500000   22.55700000 L
 H-H-0.271900     0   -3.35600000    8.86700000   22.46600000 L
 C-CX-0.014300    0   -2.01000000    7.48400000   21.70700000 L
 H-H1-0.104800    0   -1.51200000    6.74600000   22.33600000 L
 C-C2C--0.204100  0   -2.61700000    6.70100000   20.53500000 L
 H-HC-0.079700    0   -1.83500000    6.34000000   19.86600000 L
 H-HC-0.079700    0   -3.23800000    5.86300000   20.85100000 L
 C-C-0.713000     0   -3.57900000    7.62500000   19.72100000 L
 O-O--0.593100    0   -3.25700000    8.33500000   18.76600000 L
 N-N--0.919100    0   -4.83100000    7.74700000   20.08100000 L
 H-H-0.419600     0   -5.35100000    8.31700000   19.42900000 L
 H-H-0.419600     0   -5.21600000    7.09400000   20.74700000 L
 C-C-0.597300     0   -1.02400000    8.61000000   21.27300000 L
 O-O--0.567900    0   -1.42900000    9.77600000   21.21400000 L
 N-N--0.415700    0    0.25800000    8.32100000   21.15700000 L
 H-H-0.271900     0    0.47100000    7.39200000   21.49100000 L
 C-CX--0.087500   0    1.33300000    9.25200000   20.77400000 L
 H-H1-0.096900    0    0.88400000   10.19500000   20.46100000 L
 C-C3C-0.298500   0    2.34700000    9.52200000   21.90500000 L
 H-HC--0.029700   0    2.73800000    8.52600000   22.10900000 L
 C-CT--0.319200   0    3.55800000   10.44400000   21.57500000 L
 H-HC-0.079100    0    3.13900000   11.28400000   21.02200000 L
 H-HC-0.079100    0    4.08100000   10.64800000   22.50900000 L
 H-HC-0.079100    0    4.18400000    9.79800000   20.96000000 L
 C-CT--0.319200   0    1.70500000   10.06000000   23.13300000 L
 H-HC-0.079100    0    1.01100000    9.29500000   23.48200000 L
 H-HC-0.079100    0    2.43700000   10.23600000   23.92200000 L
 H-HC-0.079100    0    1.22100000   11.01600000   22.93000000 L
 C-C-0.597300     0    2.03000000    8.67800000   19.55100000 L
 O-O--0.567900    0    2.38400000    7.49700000   19.51700000 L
 N-N--0.415700    0    2.32300000    9.58200000   18.62600000 L
 H-H-0.271900     0    2.00900000   10.53100000   18.77000000 L
 C-CX--0.059700   0    3.03200000    9.36200000   17.34000000 L
 H-H1-0.086900    0    3.20200000    8.30200000   17.15100000 L
 C-C3C-0.130300   0    2.30500000    9.88300000   16.10900000 L
 H-HC-0.018700    0    2.41600000   10.96400000   16.02200000 L
 C-CT--0.320400   0    3.20500000    9.40200000   14.93300000 L
 H-HC-0.088200    0    4.22500000    9.78300000   14.98500000 L
 H-HC-0.088200    0    3.29800000    8.31700000   14.97500000 L
 H-HC-0.088200    0    2.81100000    9.64600000   13.94600000 L
 C-C2C--0.043000  0    0.90600000    9.35200000   16.03900000 L
 H-HC-0.023600    0    0.93800000    8.26400000   15.97000000 L
 H-HC-0.023600    0    0.33000000    9.57300000   16.93700000 L
 C-CT--0.066000   0    0.10500000    9.92000000   14.87400000 L
 H-HC-0.018600    0   -0.94900000    9.64600000   14.91900000 L
 H-HC-0.018600    0    0.21200000   11.00100000   14.96900000 L
 H-HC-0.018600    0    0.58700000    9.72200000   13.91700000 L
 C-C-0.597300     0    4.45200000   10.00700000   17.43400000 L
 O-O--0.567900    0    4.60500000   11.27600000   17.62200000 L
 N-N--0.415700    0    5.49300000    9.20200000   17.32200000 L
 H-H-0.271900     0    5.44300000    8.19400000   17.26700000 L
 C-CX--0.051800   0    6.89500000    9.77200000   17.06900000 L
 H-H1-0.092200    0    6.94000000   10.78600000   17.46500000 L
 C-C2C--0.110200  0    7.95300000    8.90000000   17.86700000 L
 H-HC-0.045700    0    8.06600000    7.96000000   17.32800000 L
 H-HC-0.045700    0    8.96000000    9.30900000   17.77600000 L
 C-C3C-0.353100   0    7.76600000    8.66300000   19.41800000 L
 H-HC--0.036100   0    6.78800000    8.21400000   19.59000000 L
 C-CT--0.412100   0    8.84000000    7.70600000   19.92900000 L
 H-HC-0.100000    0    8.67500000    6.73800000   19.45600000 L
 H-HC-0.100000    0    9.83400000    8.11700000   19.75000000 L
 H-HC-0.100000    0    8.64600000    7.49700000   20.98100000 L
 C-CT--0.412100   0    7.83100000   10.01300000   20.17100000 L
 H-HC-0.100000    0    7.08900000   10.74500000   19.85200000 L
 H-HC-0.100000    0    7.66400000    9.86300000   21.23700000 L