%chk=oniominput1.chk
%mem=60GB
%nprocshared=16
#p opt=(quadmac,calcfc,maxstep=10) oniom(pm6:amber=softonly)
scf=qc geom=connectivity nosymm iop(2/15=3) Amber=(FirstEquiv,print)

ONIOM inputfile generated by pdb2oniom.py from init.parm7 and minimize/min2.rst7.
Please use GaussView 6 to modify the qm region and add the link atom info.

-7 1 0 1 0 1
N-N3-0.159200     0     47.381    51.413    68.799 L
H-H-0.198400      0     47.766    50.724    68.161 L
H-H-0.198400      0     47.782    51.244    69.710 L
H-H-0.198400      0     47.671    52.330    68.489 L
C-CX-0.022100     0     45.897    51.312    68.845 L
H-HP-0.111600     0     45.544    51.829    69.740 L
C-C2C-0.086500    0     45.255    52.030    67.638 L
H-HC-0.012500     0     44.183    52.110    67.810 L
H-HC-0.012500     0     45.650    53.042    67.579 L
C-C2C-0.033400    0     45.459    51.340    66.287 L
H-H1-0.029200     0     46.518    51.322    66.034 L
H-H1-0.029200     0     45.112    50.313    66.378 L
S-S--0.277400     0     44.526    52.095    64.929 L
C-CT--0.034100    0     45.627    53.445    64.422 L
H-H1-0.059700     0     46.588    53.044    64.100 L
H-H1-0.059700     0     45.180    53.993    63.592 L
H-H1-0.059700     0     45.781    54.132    65.252 L
C-C-0.612300      0     45.444    49.845    68.972 L
O-O--0.571300     0     46.291    48.947    68.972 L
N-N--0.347900     0     44.131    49.589    69.088 L
H-H-0.274700      0     43.499    50.388    69.146 L
C-CX--0.240000    0     43.490    48.266    69.239 L
H-H1-0.142600     0     44.132    47.510    68.799 L
C-C8--0.009400    0     43.328    47.949    70.739 L
H-HC-0.036200     0     44.298    48.047    71.229 L
H-HC-0.036200     0     42.650    48.681    71.182 L
C-C8-0.018700     0     42.791    46.532    71.010 L
H-HC-0.010300     0     41.864    46.364    70.465 L
H-HC-0.010300     0     43.531    45.799    70.684 L
C-C8--0.047900    0     42.496    46.348    72.497 L
H-HC-0.062100     0     43.397    46.556    73.071 L
H-HC-0.062100     0     41.709    47.044    72.793 L
C-C8--0.014300    0     42.036    44.914    72.775 L
H-HP-0.113500     0     41.183    44.665    72.129 L
H-HP-0.113500     0     42.855    44.228    72.533 L
N-N3--0.385400    0     41.668    44.759    74.194 L
H-H-0.340000      0     40.810    45.253    74.410 L
H-H-0.340000      0     41.534    43.782    74.433 L
H-H-0.340000      0     42.386    45.139    74.799 L
C-C-0.734100      0     42.123    48.201    68.536 L
O-O--0.589400     0     41.381    49.187    68.565 L
N-N--0.415700     0     41.776    47.058    67.940 L
H-H-0.271900      0     42.441    46.290    67.966 L
C-CX--0.038900    0     40.514    46.855    67.196 L
H-H1-0.100700     0     39.749    47.474    67.658 L
C-C3C-0.365400    0     40.724    47.341    65.744 L
H-H1-0.004300     0     41.164    48.336    65.771 L
C-CT--0.243800    0     41.644    46.413    64.939 L
H-HC-0.064200     0     42.615    46.329    65.420 L
H-HC-0.064200     0     41.203    45.425    64.860 L
H-HC-0.064200     0     41.776    46.817    63.933 L
O-OH--0.676100    0     39.514    47.422    65.042 L
H-HO-0.410200     0     38.897    47.959    65.579 L
C-C-0.597300      0     39.972    45.414    67.271 L
O-O--0.567900     0     40.640    44.531    67.811 L
N-N--0.415700     0     38.777    45.158    66.726 L
H-H-0.271900      0     38.271    45.929    66.313 L
C-CX--0.003100    0     38.289    43.798    66.464 L
H-H1-0.085000     0     38.506    43.179    67.334 L
C-C2C--0.003600   0     36.755    43.784    66.252 L
H-HC-0.017100     0     36.473    44.574    65.567 L
H-HC-0.017100     0     36.461    42.843    65.790 L
C-C2C--0.064500   0     35.926    43.976    67.531 L
H-HC-0.035200     0     36.064    43.120    68.191 L
H-HC-0.035200     0     36.264    44.869    68.057 L
C-C-0.695100      0     34.437    44.137    67.210 L
O-O--0.608600     0     33.939    45.228    66.965 L
N-N--0.940700     0     33.658    43.080    67.157 L
H-H-0.425100      0     32.664    43.242    67.018 L
H-H-0.425100      0     34.019    42.155    67.314 L
C-C-0.597300      0     39.064    43.178    65.280 L
O-O--0.567900     0     39.792    42.201    65.468 L
N-N--0.415700     0     39.000    43.784    64.085 L
H-H-0.271900      0     38.414    44.612    64.006 L
C-CX--0.087500    0     39.647    43.274    62.853 L
H-H1-0.096900     0     40.158    42.335    63.081 L
C-C3C-0.298500    0     38.588    42.943    61.776 L
H-HC--0.029700    0     37.974    43.826    61.584 L
C-CT--0.319200    0     39.231    42.501    60.451 L
H-HC-0.079100     0     39.756    43.337    59.992 L
H-HC-0.079100     0     39.935    41.685    60.621 L
H-HC-0.079100     0     38.463    42.169    59.752 L
C-CT--0.319200    0     37.667    41.803    62.238 L
H-HC-0.079100     0     36.909    41.613    61.478 L
H-HC-0.079100     0     38.243    40.894    62.399 L
H-HC-0.079100     0     37.162    42.076    63.163 L
C-C-0.597300      0     40.711    44.231    62.291 L
O-O--0.567900     0     40.418    45.361    61.897 L
N-N--0.415700     0     41.953    43.756    62.191 L
H-H-0.271900      0     42.125    42.803    62.494 L
C-CX-0.033700     0     42.986    44.393    61.377 L
H-H1-0.082300     0     42.887    45.477    61.453 L
C-CT--0.182500    0     44.360    43.993    61.929 L
H-HC-0.060300     0     44.471    44.360    62.949 L
H-HC-0.060300     0     44.459    42.907    61.927 L
H-HC-0.060300     0     45.144    44.423    61.306 L
C-C-0.597300      0     42.836    43.992    59.897 L
O-O--0.567900     0     42.663    42.812    59.595 L
N-N--0.415700     0     42.950    44.947    58.973 L
H-H-0.271900      0     43.049    45.912    59.278 L
C-CX--0.059700    0     42.932    44.724    57.520 L
H-H1-0.086900     0     42.880    43.654    57.316 L
C-C3C-0.130300    0     41.698    45.389    56.859 L
H-HC-0.018700     0     41.809    46.464    56.979 L
C-CT--0.320400    0     41.668    45.074    55.348 L
H-HC-0.088200     0     42.586    45.406    54.862 L
H-HC-0.088200     0     41.551    44.001    55.187 L
H-HC-0.088200     0     40.848    45.600    54.863 L
C-C2C--0.043000   0     40.364    44.982    57.535 L
H-HC-0.023600     0     40.212    43.909    57.423 L
H-HC-0.023600     0     40.423    45.205    58.600 L
C-CT--0.066000    0     39.126    45.722    57.005 L
H-HC-0.018600     0     38.261    45.457    57.611 L
H-HC-0.018600     0     39.278    46.800    57.064 L
H-HC-0.018600     0     38.919    45.437    55.974 L
C-C-0.597300      0     44.243    45.258    56.929 L
O-O--0.567900     0     44.636    46.392    57.208 L
N-N--0.415700     0     44.930    44.453    56.120 L
H-H-0.271900      0     44.554    43.528    55.934 L
C-CX--0.059700    0     46.159    44.855    55.422 L
H-H1-0.086900     0     46.541    45.771    55.877 L
C-C3C-0.130300    0     47.270    43.784    55.542 L
H-HC-0.018700     0     47.072    42.995    54.814 L
C-CT--0.320400    0     48.629    44.415    55.190 L
H-HC-0.088200     0     49.424    43.673    55.276 L
H-HC-0.088200     0     48.627    44.782    54.165 L
H-HC-0.088200     0     48.842    45.255    55.849 L
C-C2C--0.043000   0     47.351    43.092    56.923 L
H-HC-0.023600     0     46.443    42.510    57.085 L
H-HC-0.023600     0     48.179    42.387    56.898 L
C-CT--0.066000    0     47.558    44.015    58.131 L
H-HC-0.018600     0     47.623    43.396    59.023 L
H-HC-0.018600     0     48.484    44.575    58.022 L
H-HC-0.018600     0     46.726    44.708    58.249 L
C-C-0.597300      0     45.831    45.153    53.955 L
O-O--0.567900     0     45.274    44.292    53.275 L
N-N--0.415700     0     46.207    46.342    53.483 L
H-H-0.271900      0     46.634    46.991    54.135 L
C-CX--0.025200    0     46.021    46.840    52.121 L
H-H1-0.069800     0     46.093    46.012    51.418 L
H-H1-0.069800     0     46.827    47.540    51.902 L
C-C-0.597300      0     44.680    47.543    51.878 L
O-O--0.567900     0     43.610    46.973    52.089 L
N-N--0.415700     0     44.727    48.761    51.329 L
H-H-0.271900      0     45.641    49.176    51.163 L
C-CX-0.033700     0     43.579    49.438    50.717 L
H-H1-0.082300     0     42.694    49.178    51.298 L
C-CT--0.182500    0     43.753    50.957    50.806 L
H-HC-0.060300     0     42.855    51.446    50.431 L
H-HC-0.060300     0     43.906    51.252    51.844 L
H-HC-0.060300     0     44.602    51.262    50.197 L
C-C-0.597300      0     43.315    48.938    49.278 L
O-O--0.567900     0     43.068    49.710    48.343 L
N-N--0.415700     0     43.368    47.617    49.095 L
H-H-0.271900      0     43.545    47.034    49.904 L
C-CX--0.025200    0     42.809    46.973    47.913 L
H-H1-0.069800     0     43.048    45.910    47.929 L
H-H1-0.069800     0     43.245    47.412    47.017 L
C-C-0.597300      0     41.285    47.158    47.902 L
O-O--0.567900     0     40.686    47.302    48.977 L
N-N--0.254800     0     40.614    47.152    46.736 L
C-CT-0.019200     0     41.172    46.950    45.412 L
H-H1-0.039100     0     41.455    47.916    44.998 L
H-H1-0.039100     0     42.031    46.283    45.422 L
C-CT-0.018900     0     40.033    46.341    44.603 L
H-HC-0.021300     0     39.970    45.271    44.808 L
H-HC-0.021300     0     40.146    46.519    43.536 L
C-CT--0.007000    0     38.804    47.048    45.180 L
H-HC-0.025300     0     38.698    48.035    44.726 L
H-HC-0.025300     0     37.895    46.466    45.026 L
C-CX--0.026600    0     39.151    47.202    46.668 L
H-H1-0.064100     0     38.805    48.173    47.019 L
C-C-0.589600      0     38.492    46.114    47.533 L
O-O--0.574800     0     37.465    46.376    48.157 L
N-N--0.415700     0     39.122    44.941    47.660 L
H-H-0.271900      0     39.984    44.792    47.141 L
C-CX--0.024900    0     38.673    43.854    48.534 L
H-H1-0.084300     0     37.640    43.613    48.285 L
C-C2C-0.211700    0     39.534    42.605    48.300 L
H-H1-0.035200     0     40.535    42.771    48.702 L
H-H1-0.035200     0     39.101    41.752    48.816 L
O-OH--0.654600    0     39.637    42.318    46.920 L
H-HO-0.427500     0     40.500    42.693    46.652 L
C-C-0.597300      0     38.732    44.235    50.019 L
O-O--0.567900     0     37.788    43.966    50.757 L
N-N--0.415700     0     39.801    44.909    50.461 L
H-H-0.271900      0     40.506    45.177    49.788 L
C-CX--0.025200    0     39.970    45.369    51.846 L
H-H1-0.069800     0     41.000    45.695    51.985 L
H-H1-0.069800     0     39.776    44.545    52.532 L
C-C-0.597300      0     39.051    46.539    52.209 L
O-O--0.567900     0     38.447    46.554    53.283 L
N-N--0.415700     0     38.864    47.480    51.277 L
H-H-0.271900      0     39.398    47.407    50.416 L
C-CX--0.051800    0     37.903    48.583    51.403 L
H-H1-0.092200     0     38.109    49.121    52.329 L
C-C2C--0.110200   0     38.069    49.549    50.214 L
H-HC-0.045700     0     38.000    48.963    49.294 L
H-HC-0.045700     0     37.237    50.250    50.223 L
C-C3C-0.353100    0     39.381    50.359    50.202 L
H-HC--0.036100    0     40.236    49.690    50.313 L
C-CT--0.412100    0     39.512    51.086    48.862 L
H-HC-0.100000     0     39.507    50.365    48.048 L
H-HC-0.100000     0     38.697    51.791    48.725 L
H-HC-0.100000     0     40.458    51.619    48.829 L
C-CT--0.412100    0     39.408    51.424    51.300 L
H-HC-0.100000     0     40.333    51.992    51.233 L
H-HC-0.100000     0     38.560    52.099    51.199 L
H-HC-0.100000     0     39.373    50.942    52.271 L
C-C-0.597300      0     36.455    48.067    51.507 L
O-O--0.567900     0     35.698    48.531    52.367 L
N-N--0.415700     0     36.073    47.095    50.666 L
H-H-0.271900      0     36.726    46.787    49.951 L
C-CX--0.051800    0     34.750    46.457    50.691 L
H-H1-0.092200     0     34.003    47.250    50.747 L
C-C2C--0.110200   0     34.546    45.695    49.368 L
H-HC-0.045700     0     34.668    46.405    48.553 L
H-HC-0.045700     0     35.335    44.947    49.275 L
C-C3C-0.353100    0     33.185    44.987    49.205 L
H-HC--0.036100    0     33.113    44.166    49.922 L
C-CT--0.412100    0     31.984    45.920    49.385 L
H-HC-0.100000     0     32.051    46.752    48.689 L
H-HC-0.100000     0     31.063    45.368    49.206 L
H-HC-0.100000     0     31.963    46.289    50.408 L
C-CT--0.412100    0     33.102    44.403    47.795 L
H-HC-0.100000     0     33.876    43.651    47.657 L
H-HC-0.100000     0     32.134    43.941    47.642 L
H-HC-0.100000     0     33.236    45.187    47.054 L
C-C-0.597300      0     34.554    45.570    51.937 L
O-O--0.567900     0     33.476    45.596    52.531 L
N-N--0.415700     0     35.592    44.855    52.387 L
H-H-0.271900      0     36.435    44.815    51.823 L
C-CX--0.051800    0     35.576    44.123    53.656 L
H-H1-0.092200     0     34.758    43.405    53.613 L
C-C2C--0.110200   0     36.898    43.348    53.828 L
H-HC-0.045700     0     37.042    42.683    52.981 L
H-HC-0.045700     0     37.715    44.068    53.824 L
C-C3C-0.353100    0     36.985    42.521    55.127 L
H-HC--0.036100    0     36.736    43.152    55.983 L
C-CT--0.412100    0     36.054    41.306    55.108 L
H-HC-0.100000     0     36.164    40.747    56.036 L
H-HC-0.100000     0     35.018    41.629    55.021 L
H-HC-0.100000     0     36.302    40.658    54.267 L
C-CT--0.412100    0     38.415    42.025    55.324 L
H-HC-0.100000     0     38.704    41.367    54.508 L
H-HC-0.100000     0     39.101    42.869    55.355 L
H-HC-0.100000     0     38.484    41.487    56.267 L
C-C-0.597300      0     35.298    45.063    54.842 L
O-O--0.567900     0     34.391    44.800    55.627 L
N-N--0.415700     0     36.008    46.192    54.944 L
H-H-0.271900      0     36.756    46.358    54.276 L
C-CX--0.025200    0     35.767    47.189    55.992 L
H-H1-0.069800     0     36.476    48.000    55.878 L
H-H1-0.069800     0     35.955    46.738    56.960 L
C-C-0.597300      0     34.347    47.776    55.981 L
O-O--0.567900     0     33.749    47.957    57.045 L
N-N--0.415700     0     33.779    47.994    54.788 L
H-H-0.271900      0     34.344    47.820    53.965 L
C-CX--0.003100    0     32.396    48.445    54.586 L
H-H1-0.085000     0     32.235    49.343    55.180 L
C-C2C--0.003600   0     32.223    48.806    53.096 L
H-HC-0.017100     0     32.947    49.569    52.821 L
H-HC-0.017100     0     32.452    47.930    52.498 L
C-C2C--0.064500   0     30.821    49.285    52.682 L
H-HC-0.035200     0     30.801    49.374    51.594 L
H-HC-0.035200     0     30.082    48.535    52.962 L
C-C-0.695100      0     30.396    50.632    53.260 L
O-O--0.608600     0     31.155    51.361    53.882 L
N-N--0.940700     0     29.165    51.018    53.026 L
H-H-0.425100      0     28.808    51.856    53.460 L
H-H-0.425100      0     28.530    50.422    52.506 L
C-C-0.597300      0     31.371    47.394    55.055 L
O-O--0.567900     0     30.392    47.726    55.722 L
N-N--0.415700     0     31.595    46.115    54.742 L
H-H-0.271900      0     32.411    45.895    54.178 L
C-CX--0.051800    0     30.729    45.006    55.165 L
H-H1-0.092200     0     29.688    45.285    55.003 L
C-C2C--0.110200   0     31.049    43.773    54.305 L
H-HC-0.045700     0     32.125    43.594    54.342 L
H-HC-0.045700     0     30.555    42.905    54.736 L
C-C3C-0.353100    0     30.592    43.909    52.840 L
H-HC--0.036100    0     30.869    44.888    52.450 L
C-CT--0.412100    0     31.290    42.851    51.990 L
H-HC-0.100000     0     31.007    42.977    50.948 L
H-HC-0.100000     0     32.367    42.981    52.073 L
H-HC-0.100000     0     31.018    41.854    52.331 L
C-CT--0.412100    0     29.078    43.730    52.694 L
H-HC-0.100000     0     28.803    43.746    51.641 L
H-HC-0.100000     0     28.776    42.777    53.124 L
H-HC-0.100000     0     28.558    44.536    53.209 L
C-C-0.597300      0     30.863    44.697    56.668 L
O-O--0.567900     0     29.871    44.373    57.317 L
N-N--0.415700     0     32.052    44.864    57.255 L
H-H-0.271900      0     32.854    45.074    56.667 L
C-CX--0.051800    0     32.247    44.759    58.705 L
H-H1-0.092200     0     31.753    43.852    59.049 L
C-C2C--0.110200   0     33.748    44.645    59.021 L
H-HC-0.045700     0     34.265    45.474    58.539 L
H-HC-0.045700     0     33.892    44.754    60.093 L
C-C3C-0.353100    0     34.400    43.322    58.567 L
H-HC--0.036100    0     34.289    43.200    57.493 L
C-CT--0.412100    0     35.889    43.361    58.904 L
H-HC-0.100000     0     36.025    43.453    59.980 L
H-HC-0.100000     0     36.365    42.448    58.548 L
H-HC-0.100000     0     36.350    44.212    58.405 L
C-CT--0.412100    0     33.806    42.078    59.233 L
H-HC-0.100000     0     32.770    41.947    58.925 L
H-HC-0.100000     0     34.360    41.196    58.917 L
H-HC-0.100000     0     33.862    42.170    60.314 L
C-C-0.597300      0     31.566    45.908    59.468 L
O-O--0.567900     0     30.977    45.660    60.521 L
N-N--0.415700     0     31.520    47.130    58.917 L
H-H-0.271900      0     32.057    47.304    58.074 L
C-CX--0.058100    0     30.652    48.201    59.438 L
H-H1-0.136000     0     30.897    48.374    60.484 L
C-CT--0.007400    0     30.907    49.508    58.678 L
H-HC-0.036700     0     31.963    49.763    58.749 L
H-HC-0.036700     0     30.682    49.370    57.626 L
C-CC-0.186800     0     30.090    50.668    59.187 L
N-NB--0.543200    0     28.742    50.915    58.903 L
C-CR-0.163500     0     28.437    52.050    59.558 L
H-H5-0.143500     0     27.469    52.534    59.550 L
N-NA--0.279500    0     29.500    52.503    60.238 L
H-H-0.333900      0     29.515    53.332    60.831 L
C-CW--0.220700    0     30.548    51.641    60.022 L
H-H4-0.186200     0     31.547    51.717    60.425 L
C-C-0.597300      0     29.167    47.810    59.390 L
O-O--0.567900     0     28.454    47.996    60.378 L
N-N--0.347900     0     28.736    47.162    58.294 L
H-H-0.274700      0     29.393    47.093    57.523 L
C-CX--0.240000    0     27.416    46.514    58.105 L
H-H1-0.142600     0     26.655    47.248    58.370 L
C-C8--0.009400    0     27.262    46.150    56.608 L
H-HC-0.036200     0     27.950    46.746    56.009 L
H-HC-0.036200     0     27.561    45.110    56.474 L
C-C8-0.018700     0     25.846    46.319    56.032 L
H-HC-0.010300     0     25.820    45.811    55.068 L
H-HC-0.010300     0     25.143    45.818    56.692 L
C-C8--0.047900    0     25.388    47.771    55.830 L
H-HC-0.062100     0     24.377    47.745    55.429 L
H-HC-0.062100     0     25.366    48.282    56.791 L
C-C8--0.014300    0     26.272    48.561    54.855 L
H-HP-0.113500     0     27.305    48.579    55.235 L
H-HP-0.113500     0     26.260    48.047    53.885 L
N-N3--0.385400    0     25.780    49.944    54.687 L
H-H-0.340000      0     25.791    50.429    55.572 L
H-H-0.340000      0     26.384    50.478    54.079 L
H-H-0.340000      0     24.846    49.950    54.290 L
C-C-0.734100      0     27.157    45.286    59.020 L
O-O--0.589400     0     26.111    44.636    58.910 L
N-N--0.415700     0     28.098    44.962    59.915 L
H-H-0.271900      0     28.966    45.476    59.860 L
C-CX-0.033700     0     28.013    43.934    60.958 L
H-H1-0.082300     0     26.997    43.543    60.990 L
C-CT--0.182500    0     28.961    42.787    60.577 L
H-HC-0.060300     0     28.836    41.951    61.265 L
H-HC-0.060300     0     28.750    42.443    59.567 L
H-HC-0.060300     0     29.993    43.131    60.622 L
C-C-0.597300      0     28.326    44.486    62.371 L
O-O--0.567900     0     28.421    43.715    63.333 L
N-N--0.415700     0     28.539    45.801    62.520 L
H-H-0.271900      0     28.398    46.412    61.721 L
C-CX--0.025200    0     28.980    46.429    63.777 L
H-H1-0.069800     0     28.268    46.187    64.569 L
H-H1-0.069800     0     28.978    47.512    63.645 L
C-C-0.597300      0     30.377    46.006    64.246 L
O-O--0.567900     0     30.693    46.142    65.430 L
N-N--0.415700     0     31.194    45.418    63.370 L
H-H-0.271900      0     30.884    45.361    62.405 L
C-CX--0.059700    0     32.557    44.976    63.682 L
H-H1-0.086900     0     32.615    44.723    64.743 L
C-C3C-0.130300    0     32.914    43.690    62.897 L
H-HC-0.018700     0     32.729    43.860    61.834 L
C-CT--0.320400    0     34.404    43.335    63.078 L
H-HC-0.088200     0     35.037    44.126    62.675 L
H-HC-0.088200     0     34.630    43.197    64.132 L
H-HC-0.088200     0     34.646    42.422    62.543 L
C-C2C--0.043000   0     32.030    42.510    63.371 L
H-HC-0.023600     0     32.303    42.238    64.391 L
H-HC-0.023600     0     30.993    42.832    63.376 L
C-CT--0.066000    0     32.093    41.255    62.488 L
H-HC-0.018600     0     31.788    41.501    61.469 L
H-HC-0.018600     0     33.095    40.832    62.475 L
H-HC-0.018600     0     31.410    40.505    62.884 L
C-C-0.597300      0     33.526    46.138    63.432 L
O-O--0.567900     0     33.651    46.656    62.317 L
N-N--0.516300     0     34.204    46.572    64.486 L
H-H-0.293600      0     34.054    46.114    65.376 L
C-CX-0.038100     0     35.243    47.589    64.427 L
H-H1-0.088000     0     34.832    48.489    63.969 L
C-C2C--0.030300   0     35.669    47.914    65.860 L
H-HC--0.012200    0     34.835    48.380    66.387 L
H-HC--0.012200    0     35.919    46.981    66.369 L
C-CO-0.799400     0     36.885    48.831    65.927 L
O-O2--0.801400    0     37.802    48.530    66.723 L
O-O2--0.801400    0     36.967    49.839    65.192 L
C-C-0.536600      0     36.435    47.101    63.589 L
O-O--0.581900     0     36.880    45.958    63.715 L
N-N--0.415700     0     36.959    47.961    62.721 L
H-H-0.271900      0     36.568    48.896    62.660 L
C-CX-0.014300     0     38.045    47.588    61.821 L
H-H1-0.104800     0     38.655    46.851    62.341 L
C-C2C--0.204100   0     37.439    46.909    60.576 L
H-HC-0.079700     0     38.243    46.567    59.925 L
H-HC-0.079700     0     36.874    46.031    60.888 L
C-C-0.713000      0     36.526    47.819    59.774 L
O-O--0.593100     0     36.985    48.603    58.956 L
N-N--0.919100     0     35.227    47.746    59.958 L
H-H-0.419600      0     34.635    48.315    59.373 L
H-H-0.419600      0     34.835    47.193    60.713 L
C-C-0.597300      0     38.995    48.750    61.487 L
O-O--0.567900     0     38.617    49.927    61.514 L
N-N--0.415700     0     40.242    48.410    61.155 L
H-H-0.271900      0     40.478    47.420    61.176 L
C-CX--0.087500    0     41.320    49.351    60.802 L
H-H1-0.096900     0     40.898    50.327    60.562 L
C-C3C-0.298500    0     42.307    49.527    61.977 L
H-HC--0.029700    0     42.687    48.544    62.269 L
C-CT--0.319200    0     43.506    50.409    61.600 L
H-HC-0.079100     0     43.166    51.383    61.249 L
H-HC-0.079100     0     44.149    50.547    62.466 L
H-HC-0.079100     0     44.102    49.932    60.823 L
C-CT--0.319200    0     41.627    50.160    63.198 L
H-HC-0.079100     0     40.807    49.533    63.541 L
H-HC-0.079100     0     42.344    50.248    64.012 L
H-HC-0.079100     0     41.249    51.150    62.945 L
C-C-0.597300      0     42.063    48.831    59.575 L
O-O--0.567900     0     42.488    47.678    59.575 L
N-N--0.415700     0     42.249    49.677    58.559 L
H-H-0.271900      0     41.907    50.621    58.644 L
C-CX--0.059700    0     43.062    49.363    57.374 L
H-H1-0.086900     0     43.185    48.285    57.305 L
C-C3C-0.130300    0     42.365    49.832    56.071 L
H-HC-0.018700     0     42.267    50.917    56.121 L
C-CT--0.320400    0     43.222    49.474    54.840 L
H-HC-0.088200     0     44.207    49.935    54.899 L
H-HC-0.088200     0     43.340    48.391    54.762 L
H-HC-0.088200     0     42.754    49.844    53.930 L
C-C2C--0.043000   0     40.943    49.235    55.922 L
H-HC-0.023600     0     41.008    48.155    55.817 L
H-HC-0.023600     0     40.364    49.455    56.817 L
C-CT--0.066000    0     40.145    49.779    54.730 L
H-HC-0.018600     0     39.106    49.463    54.819 L
H-HC-0.018600     0     40.186    50.868    54.718 L
H-HC-0.018600     0     40.542    49.386    53.795 L
C-C-0.597300      0     44.461    49.984    57.530 L
O-O--0.567900     0     44.571    51.168    57.856 L
N-N--0.415700     0     45.514    49.204    57.272 L
H-H-0.271900      0     45.323    48.231    57.048 L
C-CX--0.051800    0     46.882    49.691    57.042 L
H-H1-0.092200     0     46.973    50.724    57.380 L
C-C2C--0.110200   0     47.900    48.820    57.808 L
H-HC-0.045700     0     47.884    47.817    57.375 L
H-HC-0.045700     0     48.894    49.236    57.639 L
C-C3C-0.353100    0     47.679    48.678    59.327 L
H-HC--0.036100    0     46.718    48.197    59.515 L
C-CT--0.412100    0     48.780    47.790    59.910 L
H-HC-0.100000     0     48.766    46.827    59.405 L
H-HC-0.100000     0     49.753    48.256    59.761 L
H-HC-0.100000     0     48.609    47.636    60.975 L
C-CT--0.412100    0     47.714    50.018    60.061 L
H-HC-0.100000     0     46.852    50.614    59.764 L
H-HC-0.100000     0     47.667    49.858    61.136 L
H-HC-0.100000     0     48.632    50.556    59.818 L
C-C-0.597300      0     47.191    49.657    55.536 L
O-O--0.567900     0     46.983    48.626    54.904 L
N-N--0.516300     0     47.716    50.739    54.961 L
H-H-0.293600      0     47.867    51.569    55.531 L
C-CX-0.039700     0     47.990    50.870    53.519 L
H-H1-0.110500     0     47.978    49.877    53.055 L
C-C2C-0.056000    0     46.868    51.708    52.872 L
H-HC--0.017300    0     45.965    51.097    52.853 L
H-HC--0.017300    0     46.667    52.585    53.495 L
C-C2C-0.013600    0     47.162    52.209    51.446 L
H-HC--0.042500    0     46.256    52.665    51.045 L
H-HC--0.042500    0     47.916    52.991    51.507 L
C-CO-0.805400     0     47.652    51.115    50.488 L
O-O2--0.818800    0     47.077    50.008    50.476 L
O-O2--0.818800    0     48.646    51.327    49.755 L
C-C-0.536600      0     49.378    51.475    53.261 L
O-O--0.581900     0     49.748    52.501    53.829 L
N-N--0.347900     0     50.142    50.845    52.363 L
H-H-0.274700      0     49.739    50.041    51.901 L
C-CX--0.263700    0     51.562    51.122    52.109 L
H-H1-0.156000     0     52.088    51.006    53.057 L
C-C8--0.000700    0     52.087    50.059    51.132 L
H-HC-0.032700     0     51.750    49.088    51.484 L
H-HC-0.032700     0     51.660    50.224    50.139 L
C-C8-0.039000     0     53.615    50.014    51.036 L
H-HC-0.028500     0     53.967    50.842    50.420 L
H-HC-0.028500     0     54.052    50.108    52.030 L
C-C8-0.048600     0     54.058    48.683    50.415 L
H-H1-0.068700     0     53.725    47.857    51.042 L
H-H1-0.068700     0     53.587    48.570    49.437 L
N-N2--0.529500    0     55.517    48.613    50.252 L
H-H-0.345600      0     55.877    48.841    49.332 L
C-CA-0.807600     0     56.415    48.281    51.162 L
N-N2--0.862700    0     56.121    47.971    52.394 L
H-H-0.447800      0     56.858    47.708    53.035 L
H-H-0.447800      0     55.183    48.093    52.755 L
N-N2--0.862700    0     57.667    48.259    50.824 L
H-H-0.447800      0     58.385    48.148    51.531 L
H-H-0.447800      0     57.909    48.489    49.869 L
C-C-0.734100      0     51.879    52.544    51.633 L
O-O--0.589400     0     52.939    53.053    51.990 L
N-N--0.415700     0     51.006    53.194    50.859 L
H-H-0.271900      0     50.135    52.723    50.634 L
C-CX--0.003100    0     51.274    54.510    50.239 L
H-H1-0.085000     0     52.175    54.941    50.674 L
C-C2C--0.003600   0     51.554    54.337    48.732 L
H-HC-0.017100     0     50.640    53.991    48.258 L
H-HC-0.017100     0     51.794    55.310    48.299 L
C-C2C--0.064500   0     52.694    53.354    48.384 L
H-HC-0.035200     0     52.466    52.369    48.791 L
H-HC-0.035200     0     52.740    53.258    47.298 L
C-C-0.695100      0     54.080    53.786    48.866 L
O-O--0.608600     0     54.340    54.929    49.215 L
N-N--0.940700     0     55.054    52.910    48.869 L
H-H-0.425100      0     55.987    53.234    49.118 L
H-H-0.425100      0     54.884    51.956    48.562 L
C-C-0.597300      0     50.147    55.533    50.496 L
O-O--0.567900     0     49.118    55.211    51.090 L
N-N--0.415700     0     50.355    56.792    50.103 L
H-H-0.271900      0     51.247    57.014    49.671 L
C-CX--0.038900    0     49.334    57.862    50.123 L
H-H1-0.100700     0     48.902    57.890    51.120 L
C-C3C-0.365400    0     49.975    59.238    49.858 L
H-H1-0.004300     0     49.195    59.978    49.717 L
C-CT--0.243800    0     50.835    59.698    51.035 L
H-HC-0.064200     0     50.214    59.813    51.923 L
H-HC-0.064200     0     51.622    58.977    51.243 L
H-HC-0.064200     0     51.288    60.661    50.801 L
O-OH--0.676100    0     50.785    59.221    48.707 L
H-HO-0.410200     0     50.229    59.498    47.941 L
C-C-0.597300      0     48.181    57.588    49.132 L
O-O--0.567900     0     48.383    56.891    48.133 L
N-N--0.254800     0     46.956    58.105    49.371 L
C-CT-0.019200     0     46.573    58.978    50.471 L
H-H1-0.039100     0     46.512    58.399    51.390 L
H-H1-0.039100     0     47.266    59.805    50.606 L
C-CT-0.018900     0     45.190    59.518    50.111 L
H-HC-0.021300     0     45.294    60.405    49.485 L
H-HC-0.021300     0     44.600    59.742    51.001 L
C-CT--0.007000    0     44.573    58.387    49.292 L
H-HC-0.025300     0     44.102    57.667    49.962 L
H-HC-0.025300     0     43.838    58.768    48.582 L
C-CX--0.026600    0     45.768    57.725    48.595 L
H-H1-0.064100     0     45.644    56.645    48.668 L
C-C-0.589600      0     45.838    58.069    47.098 L
O-O--0.574800     0     45.280    57.323    46.292 L
N-N--0.516300     0     46.581    59.105    46.691 L
H-H-0.293600      0     46.984    59.723    47.388 L
C-CX-0.038100     0     46.826    59.410    45.272 L
H-H1-0.088000     0     45.860    59.554    44.796 L
C-C2C--0.030300   0     47.640    60.707    45.103 L
H-HC--0.012200    0     47.624    60.980    44.047 L
H-HC--0.012200    0     47.148    61.511    45.650 L
C-CO-0.799400     0     49.102    60.603    45.562 L
O-O2--0.801400    0     50.005    60.937    44.761 L